peakDumbCharging = 3700; 
Machine = anon_enum(16); 
machineSpeed = [3700,3700,3700,3700,3700,3700,3700,3700,3700,3700,3700,3700,3700,3700,3700,3700]; 
machineLoad = [3700,3700,3700,3700,3700,3700,3700,3700,3700,3700,3700,3700,3700,3700,3700,3700]; 
Car = anon_enum(3); 
demandCar = [6640,12840,1840]; 
arrivalCar = [63,51,47]; 
departureCar = [66,57,49]; 
